c "958586.clq"
p edge 80 304
e 1 5
e 1 7
e 1 12
e 1 26
e 1 30
e 1 34
e 1 55
e 1 76
e 1 77
e 2 5
e 2 6
e 2 14
e 2 54
e 3 5
e 3 6
e 3 7
e 3 9
e 3 12
e 3 13
e 3 14
e 3 18
e 3 19
e 3 21
e 3 24
e 3 25
e 3 26
e 3 27
e 3 29
e 3 31
e 3 38
e 3 40
e 3 44
e 3 65
e 4 5
e 4 6
e 4 8
e 4 10
e 4 11
e 4 15
e 4 16
e 4 21
e 4 24
e 4 28
e 4 35
e 4 37
e 4 70
e 4 75
e 5 6
e 5 7
e 5 8
e 5 9
e 5 10
e 5 11
e 5 17
e 5 23
e 5 32
e 5 33
e 5 34
e 5 40
e 5 47
e 5 61
e 5 62
e 5 69
e 5 75
e 6 7
e 6 8
e 6 9
e 6 17
e 6 20
e 6 23
e 6 25
e 6 27
e 6 32
e 6 39
e 6 41
e 6 43
e 6 45
e 6 51
e 6 53
e 6 56
e 6 57
e 6 60
e 6 61
e 6 62
e 7 8
e 7 9
e 7 10
e 7 11
e 7 12
e 7 13
e 7 14
e 7 17
e 7 22
e 7 24
e 7 26
e 7 28
e 7 38
e 7 50
e 7 51
e 7 58
e 7 61
e 7 73
e 8 15
e 8 18
e 8 19
e 8 27
e 8 43
e 8 52
e 8 54
e 9 10
e 9 12
e 9 14
e 9 20
e 9 22
e 9 26
e 9 34
e 9 36
e 9 38
e 9 47
e 9 58
e 9 74
e 10 11
e 10 13
e 10 15
e 10 20
e 10 22
e 10 37
e 10 46
e 10 49
e 10 65
e 10 75
e 10 80
e 11 17
e 11 18
e 11 19
e 11 20
e 11 30
e 11 35
e 11 37
e 11 45
e 11 53
e 11 57
e 11 59
e 11 69
e 12 13
e 12 15
e 12 21
e 12 23
e 12 33
e 12 47
e 12 56
e 12 57
e 12 62
e 12 63
e 12 64
e 12 66
e 12 71
e 13 16
e 13 23
e 13 29
e 14 16
e 14 30
e 14 80
e 15 16
e 15 27
e 15 32
e 15 39
e 15 50
e 16 18
e 16 29
e 16 31
e 16 35
e 16 44
e 16 46
e 16 62
e 17 19
e 17 22
e 17 25
e 17 36
e 17 42
e 18 21
e 18 28
e 18 41
e 18 43
e 18 45
e 18 52
e 18 65
e 18 73
e 19 24
e 19 31
e 19 32
e 19 49
e 19 63
e 19 76
e 19 79
e 20 29
e 20 36
e 20 48
e 20 56
e 20 59
e 21 33
e 21 36
e 21 67
e 22 31
e 22 42
e 22 50
e 22 56
e 22 61
e 23 25
e 23 28
e 23 30
e 23 40
e 23 44
e 23 54
e 23 55
e 23 57
e 23 79
e 24 39
e 24 40
e 24 78
e 25 37
e 25 41
e 26 46
e 26 48
e 26 51
e 26 55
e 26 64
e 26 66
e 27 33
e 27 48
e 27 72
e 27 76
e 27 79
e 29 49
e 29 64
e 29 77
e 30 43
e 31 34
e 31 52
e 31 72
e 32 35
e 32 46
e 33 48
e 33 70
e 33 72
e 33 74
e 33 79
e 34 38
e 34 39
e 34 42
e 34 45
e 34 47
e 34 58
e 34 59
e 34 60
e 34 64
e 34 67
e 35 52
e 35 55
e 35 77
e 35 80
e 36 70
e 37 42
e 37 44
e 37 50
e 37 54
e 37 71
e 37 72
e 38 41
e 38 63
e 38 69
e 39 58
e 40 51
e 41 49
e 41 68
e 42 77
e 43 78
e 44 60
e 46 53
e 46 66
e 46 73
e 48 53
e 48 71
e 50 69
e 50 76
e 52 66
e 52 67
e 53 60
e 53 63
e 53 65
e 56 68
e 58 59
e 58 68
e 58 70
e 59 80
e 60 68
e 60 74
e 61 78
e 63 75
e 64 67
e 64 71
e 64 73
e 67 74
e 69 78
